2	34	1	8	29	100	0	0	0	0	0	0
800	1	0	0	0	0	0	0	0	0	0	0
800	1	0	0	0	0	0	0	0	0	0	0
100	1	0	62.14	0.48	1	0	0	0	0	0	0
100	1	0	62.14	0.48	1	0	0	0	0	0	0
100	1	0	62.14	0.48	1	0	0	0	0	0	0
100	1	0	62.14	0.48	1	0	0	0	0	0	0
100	1	0	62.14	0.48	1	0	0	0	0	0	0
100	1	0	62.14	0.48	1	0	0	0	0	0	0
100	1	0	62.14	0.48	1	0	0	0	0	0	0
100	1	0	62.14	0.48	1	0	0	0	0	0	0
100	1	0	62.14	0.48	1	0	0	0	0	0	0
100	1	0	62.14	0.48	1	0	0	0	0	0	0
100	1	0	62.14	0.48	1	0	0	0	0	0	0
100	1	0	62.14	0.48	1	0	0	0	0	0	0
100	1	0	62.14	0.48	1	0	0	0	0	0	0
100	1	0	62.14	0.48	1	0	0	0	0	0	0
100	1	0	62.14	0.48	1	0	0	0	0	0	0
100	1	0	62.14	0.48	1	0	0	0	0	0	0
100	1	0	62.14	0.48	1	0	0	0	0	0	0
100	1	0	62.14	0.48	1	0	0	0	0	0	0
100	1	0	62.14	0.48	1	0	0	0	0	0	0
100	1	0	62.14	0.48	1	0	0	0	0	0	0
100	1	0	62.14	0.48	1	0	0	0	0	0	0
100	1	0	62.14	0.48	1	0	0	0	0	0	0
100	1	0	62.14	0.48	1	0	0	0	0	0	0
100	1	0	62.14	0.48	1	0	0	0	0	0	0
100	1	0	62.14	0.48	1	0	0	0	0	0	0
100	1	0	62.14	0.48	1	0	0	0	0	0	0
100	1	0	62.14	0.48	1	0	0	0	0	0	0
100	1	0	62.14	0.48	1	0	0	0	0	0	0
100	1	0	62.14	0.48	1	0	0	0	0	0	0
100	1	0	62.14	0.48	1	0	0	0	0	0	0
100	1	0	62.14	0.48	1	0	0	0	0	0	0
100	1	0	62.14	0.48	1	0	0	0	0	0	0
100	1	0	62.14	0.48	1	0	0	0	0	0	0
100	1	0	62.14	0.48	1	0	0	0	0	0	0
50	150	0	0	0	0	230	0	0	99999	0	0
25	25	0	0	0	0	230	0	0	99999	0	0
50	25	0	0	0	0	230	0	0	99999	0	0
75	25	0	0	0	0	230	0	0	99999	0	0
25	50	0	0	0	0	230	0	0	99999	0	0
75	50	0	0	0	0	230	0	0	99999	0	0
25	75	0	0	0	0	230	0	0	99999	0	0
50	75	0	0	0	0	230	0	0	99999	0	0
75	75	0	0	0	0	230	0	0	99999	0	0
25	25	0	0	0	0	230	0	0	0	0	0
50	25	0	0	0	0	230	0	0	0	0	0
75	25	0	0	0	0	230	0	0	0	0	0
25	50	0	0	0	0	230	0	0	0	0	0
75	50	0	0	0	0	230	0	0	0	0	0
25	75	0	0	0	0	230	0	0	0	0	0
50	75	0	0	0	0	230	0	0	0	0	0
75	75	0	0	0	0	230	0	0	0	0	0
35      35      0       0       0       0       230     0       0       0       0       0
61      37      0       0       0       0       230     0       0       0       0       0
74      39      0       0       0       0       230     0       0       0       0       0
47      57      0       0       0       0       230     0       0       0       0       0
57      65      0       0       0       0       230     0       0       0       0       0
29      59      0       0       0       0       230     0       0       0       0       0
34      71      0       0       0       0       230     0       0       0       0       0
22      58      0       0       0       0       230     0       0       0       0       0
7	61	0	0	0	0	230	0	0	0	0	0
18	41	0	0	0	0	230	0	0	0	0	0
5	39	0	0	0	0	230	0	0	0	0	0
14	20	0	0	0	0	230	0	0	0	0	0
0	26	0	0	0	0	230	0	0	0	0	0
24	25	0	0	0	0	230	0	0	0	0	0
26	6	0	0	0	0	230	0	0	0	0	0
34	20	0	0	0	0	230	0	0	0	0	0
41	5	0	0	0	0	230	0	0	0	0	0
50	9	0	0	0	0	230	0	0	0	0	0
61	14	0	0	0	0	230	0	0	0	0	0
62	21	0	0	0	0	230	0	0	0	0	0
74	30	0	0	0	0	230	0	0	0	0	0
41	49	10	8	2	152	162	10	0	0	0	0
35	17	7	3	4	213	223	10	0	0	0	0
55	45	13	11	2	144	154	10	0	0	0	0
55	20	19	7	12	223	233	10	0	0	0	0
15	30	26	13	13	279	289	10	0	0	0	0
25	30	3	3	0	211	221	10	0	0	0	0
20	50	5	2	3	204	214	10	0	0	0	0
10	43	9	2	7	143	153	10	0	0	0	0
55	60	16	15	1	186	196	10	0	0	0	0
30	60	16	8	8	273	283	10	0	0	0	0
20	65	12	4	8	177	187	10	0	0	0	0
50	35	19	13	6	293	303	10	0	0	0	0
30	25	23	19	4	314	324	10	0	0	0	0
15	10	20	13	7	273	283	10	0	0	0	0
30	5	8	1	7	230	240	10	0	0	0	0
10	20	19	10	9	187	197	10	0	0	0	0
5	30	2	0	2	189	199	10	0	0	0	0
20	40	12	6	6	243	253	10	0	0	0	0
15	60	17	4	13	164	174	10	0	0	0	0
45	65	9	6	3	275	285	10	0	0	0	0
45	20	11	5	6	139	149	10	0	0	0	0
45	10	18	4	14	166	176	10	0	0	0	0
55	5	29	3	26	235	245	10	0	0	0	0
65	35	3	2	1	296	306	10	0	0	0	0
65	20	6	2	4	253	263	10	0	0	0	0
45	30	17	11	6	290	300	10	0	0	0	0
35	40	16	14	2	289	299	10	0	0	0	0
41	37	16	14	2	319	329	10	0	0	0	0
64	42	9	6	3	233	243	10	0	0	0	0
40	60	21	14	7	279	289	10	0	0	0	0
31	52	27	16	11	141	151	10	0	0	0	0
35	69	23	12	11	171	181	10	0	0	0	0
53	52	11	11	0	170	180	10	0	0	0	0
65	55	14	12	2	198	208	10	0	0	0	0
63	65	8	8	0	241	251	10	0	0	0	0
2	60	5	0	5	194	204	10	0	0	0	0
20	20	8	8	0	304	314	10	0	0	0	0
5	5	16	16	0	179	189	10	0	0	0	0
60	12	31	6	25	166	176	10	0	0	0	0
40	25	9	6	3	150	160	10	0	0	0	0
42	7	5	1	4	297	307	10	0	0	0	0
24	12	5	3	2	263	273	10	0	0	0	0
23	3	7	1	6	159	169	10	0	0	0	0
11	14	18	14	4	287	297	10	0	0	0	0
6	38	16	3	13	241	251	10	0	0	0	0
2	48	1	0	1	166	176	10	0	0	0	0
8	56	27	4	23	272	282	10	0	0	0	0
13	52	36	9	27	263	273	10	0	0	0	0
6	68	30	3	27	268	278	10	0	0	0	0
47	47	13	13	0	234	244	10	0	0	0	0
49	58	10	8	2	294	304	10	0	0	0	0
27	43	9	6	3	227	237	10	0	0	0	0
37	31	14	12	2	283	293	10	0	0	0	0
57	29	18	9	9	204	214	10	0	0	0	0
63	23	2	1	1	196	206	10	0	0	0	0
53	12	6	1	5	174	184	10	0	0	0	0
32	12	7	3	4	302	312	10	0	0	0	0
36	26	18	13	5	228	238	10	0	0	0	0
21	24	28	25	3	217	227	10	0	0	0	0
17	34	3	2	1	136	146	10	0	0	0	0
12	24	13	7	6	145	155	10	0	0	0	0
24	58	19	8	11	157	167	10	0	0	0	0
27	69	10	4	6	248	258	10	0	0	0	0
15	77	9	2	7	227	237	10	0	0	0	0
62	77	20	16	4	184	194	10	0	0	0	0
49	73	25	17	8	182	192	10	0	0	0	0
67	5	25	2	23	259	269	10	0	0	0	0
56	39	36	25	11	173	183	10	0	0	0	0
37	47	6	5	1	267	277	10	0	0	0	0
37	56	5	3	2	165	175	10	0	0	0	0
57	68	15	13	2	233	243	10	0	0	0	0
47	16	25	9	16	227	237	10	0	0	0	0
44	17	9	3	6	252	262	10	0	0	0	0
46	13	8	2	6	143	153	10	0	0	0	0
49	11	18	4	14	175	185	10	0	0	0	0
49	42	13	11	2	299	309	10	0	0	0	0
53	43	14	11	3	266	276	10	0	0	0	0
61	52	3	3	0	210	220	10	0	0	0	0
57	48	23	19	4	206	216	10	0	0	0	0
56	37	6	4	2	224	234	10	0	0	0	0
55	54	26	26	0	150	160	10	0	0	0	0
15	47	16	5	11	285	295	10	0	0	0	0
14	37	11	4	7	260	270	10	0	0	0	0
11	31	7	2	5	212	222	10	0	0	0	0
16	22	41	30	11	209	219	10	0	0	0	0
4	18	35	8	27	215	225	10	0	0	0	0
28	18	26	17	9	282	292	10	0	0	0	0
26	52	9	5	4	282	292	10	0	0	0	0
26	35	15	11	4	161	171	10	0	0	0	0
31	67	3	1	2	185	195	10	0	0	0	0
15	19	1	1	0	203	213	10	0	0	0	0
22	22	2	2	0	240	250	10	0	0	0	0
18	24	22	17	5	229	239	10	0	0	0	0
26	27	27	26	1	291	301	10	0	0	0	0
25	24	20	19	1	256	266	10	0	0	0	0
22	27	11	9	2	144	154	10	0	0	0	0
25	21	12	10	2	258	268	10	0	0	0	0
19	21	10	9	1	220	230	10	0	0	0	0
20	26	9	7	2	254	264	10	0	0	0	0
18	18	17	17	0	204	214	10	0	0	0	0
